sat
(error "line 2527 column 10: an invalid model was generated")
(:max-memory          21.05
 :memory              19.52
 :num-allocs          7275065
 :rlimit-count        103488
 :sat-mk-var          1
 :sls-ddfw-flips      5572.00
 :sls-ddfw-shifts     229.00
 :sls-repair-down     26083
 :sls-repair-up       30747
 :solve-eqs-elim-vars 4
 :solve-eqs-steps     1184
 :time                0.05
 :total-time          0.06)
